n_res = 4;
rc = [ 13, 23, 13, 25 ];
n_tasks = 30;
d = [ 3, 3, 8, 6, 8, 8, 5, 4, 8, 9, 3, 5, 10, 3, 4, 9, 7, 8, 10, 4, 6, 1, 3, 5, 9, 6, 8, 4, 5, 1 ];
rr = [| 2, 0, 0, 0, 2, 0, 4, 0, 0, 0, 2, 10, 0, 8, 0, 4, 0, 0, 0, 2, 0, 0, 9, 0, 0, 2, 0, 0, 0, 0
      | 0, 0, 7, 10, 0, 10, 10, 8, 0, 8, 0, 0, 1, 3, 2, 0, 0, 1, 1, 0, 7, 2, 2, 0, 0, 0, 10, 9, 0, 0
      | 5, 2, 6, 0, 0, 3, 1, 0, 5, 4, 10, 8, 0, 2, 0, 3, 0, 0, 0, 0, 10, 7, 0, 0, 0, 0, 6, 0, 4, 9
      | 5, 2, 4, 4, 7, 5, 0, 9, 0, 0, 0, 8, 0, 0, 0, 8, 4, 0, 4, 3, 1, 0, 3, 7, 8, 0, 0, 6, 5, 3 |];
suc = [ { 2 }, 
        { 1 }, 
        { 4 }, 
        { 3 }, 
        { 6 }, 
        { 5 }, 
        { 8 }, 
        { 7 }, 
        { 10 }, 
        { 9 }, 
        { 12 }, 
        { 11 }, 
        { 14 }, 
        { 13 }, 
        { 16 }, 
        { 15 }, 
        { 18 }, 
        { 17 }, 
        { 20 }, 
        { 19 }, 
        { 22 }, 
        { 21 }, 
        { 24 }, 
        { 23 }, 
        { 26 }, 
        { 25 }, 
        { 28 }, 
        { 27 }, 
        { 30 }, 
        { 29 }]; 
